cpu-bind=MASK - cn-0132, task  0  0 [439082]: mask |--------BBBBBBBB----||||--------------------|  set
Python 3.10.6
Gurobi Optimizer version 10.0.0 build v10.0.0rc2 (linux64)
Copyright (c) 2022, Gurobi Optimization, LLC
started at Thu Oct 19 14:12:05 CEST 2023
####################################################################################################
####################################################################################################
Start ROADEF
Set parameter TokenServer to value "license3.uni-paderborn.de"
####################################################################################################
####################################################################################################
Time for optimization 43200 (s)
####################################################################################################
Data read
Took 	00:00:00.043
####################################################################################################
Presolve
Anzahl Trucks in OPtimierungsproblem:  19
Itemgruppen in AP werden eher enger gemacht:  True
Start Reduction
Orinigial Anzahl:  127 684
Reduzierte Anzahl:  38 684
####################################################################################################
Load Assignment 1 solution
/scratch/hpc-prf-winf4/dwetzel/ROADEF/sol/AllPackingTight/X/PA5/output_items.csv
Took 	00:00:00.074
####################################################################################################
####################################################################################################
Simple Packing:  2
dataP.t2DSP:  1
####################################################################################################
####################################################################################################
First packing

----------------------------------------------------------------------------------------------------
3D Packing Heuristic in Truck P250630901
Item 0091017200_14062023000023 with: 6
Item 0091017200_14062023000032 with: 3
Item 0091017200_14062023000050 with: 2
Item 0091017200_14062023000097 with: 3
Item 0091017200_14062023000111 with: 3
Item 0091017200_14062023000115 with: 1
Heuristic packed all items

----------------------------------------------------------------------------------------------------
3D Packing Heuristic in Truck P208630901
Item 0091017200_14062023000024 with: 2
Item 0091017200_14062023000043 with: 2
Item 0091017200_14062023000045 with: 4
Item 0091017200_14062023000052 with: 4
Item 0091017200_14062023000091 with: 1
Item 0091017200_14062023000101 with: 7
Heuristic packed all items

----------------------------------------------------------------------------------------------------
3D Packing Heuristic in Truck P236630901
Item 0091017200_14062023000027 with: 4
Item 0091017200_14062023000055 with: 2
Item 0091017200_14062023000066 with: 7
Item 0091017200_14062023000073 with: 3
Item 0091017200_14062023000089 with: 4
Item 0091017200_14062023000108 with: 1
Heuristic packed all items

----------------------------------------------------------------------------------------------------
3D Packing Heuristic in Truck P209630901
Item 0091017200_14062023000001 with: 4
Item 0091017200_14062023000053 with: 2
Item 0091017200_14062023000063 with: 5
Item 0091017200_14062023000083 with: 2
Item 0091017200_14062023000096 with: 8
Item 0091017200_14062023000099 with: 1
Heuristic packed all items

----------------------------------------------------------------------------------------------------
3D Packing Heuristic in Truck P243630901
Item 0091017200_14062023000015 with: 2
Item 0091017200_14062023000022 with: 2
Item 0091017200_14062023000082 with: 7
Item 0091017200_14062023000090 with: 3
Item 0091017200_14062023000104 with: 4
Item 0091017200_14062023000107 with: 4
Heuristic packed all items

----------------------------------------------------------------------------------------------------
3D Packing Heuristic in Truck P187630901
Item 0091017200_14062023000005 with: 5
Item 0091017200_14062023000013 with: 3
Item 0091017200_14062023000014 with: 5
Item 0091017200_14062023000021 with: 3
Item 0091017200_14062023000076 with: 3
Item 0091017200_14062023000085 with: 2
Item 0091017200_14062023000116 with: 2
Heuristic packed all items

----------------------------------------------------------------------------------------------------
3D Packing Heuristic in Truck P194630901
Item 0091017200_14062023000003 with: 2
Item 0091017200_14062023000012 with: 3
Item 0091017200_14062023000065 with: 1
Item 0091017200_14062023000067 with: 2
Item 0091017200_14062023000080 with: 3
Item 0091017200_14062023000088 with: 5
Item 0091017200_14062023000098 with: 3
Item 0091017200_14062023000100 with: 4
Item 0091017200_14062023000112 with: 1
Heuristic packed all items

----------------------------------------------------------------------------------------------------
2D Packing Heuristic in Truck P201630901
Min2DVol: 15.599999999999996 [m2]
Stack 0 with items: ['0091017200_14062023000102', '0091017200_14062023000092', '0091017200_14062023000102']
Stack 1 with items: ['0091017200_14062023000092', '0091017200_14062023000046', '0091017200_14062023000046']
Stack 2 with items: ['0091017200_14062023000046', '0091017200_14062023000046', '0091017200_14062023000046']
Stack 3 with items: ['0091017200_14062023000046', '0091017200_14062023000046', '0091017200_14062023000046']
Stack 4 with items: ['0091017200_14062023000016', '0091017200_14062023000016', '0091017200_14062023000016']
Stack 5 with items: ['0091017200_14062023000011', '0091017200_14062023000011', '0091017200_14062023000011']
Stack 6 with items: ['0091017200_14062023000011', '0091017200_14062023000011', '0091017200_14062023000011']
Stack 7 with items: ['0091017200_14062023000006', '0091017200_14062023000006', '0091017200_14062023000006']
Stack 8 with items: ['0091017200_14062023000006', '0091017200_14062023000006', '0091017200_14062023000006']
Stack 9 with items: ['0091017200_14062023000121', '0091017200_14062023000127']
Stack 10 with items: ['0091017200_14062023000127', '0091017200_14062023000127']
Stack 11 with items: ['0091017200_14062023000121', '0091017200_14062023000121']
Stack 12 with items: ['0091017200_14062023000078']
Heuristic packed all stacks

----------------------------------------------------------------------------------------------------
2D Packing Heuristic in Truck P248630901
Min2DVol: 17.999999999999996 [m2]
Stack 0 with items: ['0091017200_14062023000077', '0091017200_14062023000077', '0091017200_14062023000077']
Stack 1 with items: ['0091017200_14062023000041', '0091017200_14062023000041', '0091017200_14062023000041']
Stack 2 with items: ['0091017200_14062023000041', '0091017200_14062023000020', '0091017200_14062023000020']
Stack 3 with items: ['0091017200_14062023000020', '0091017200_14062023000002', '0091017200_14062023000020']
Stack 4 with items: ['0091017200_14062023000002', '0091017200_14062023000002', '0091017200_14062023000002']
Stack 5 with items: ['0091017200_14062023000002', '0091017200_14062023000002', '0091017200_14062023000002']
Stack 6 with items: ['0091017200_14062023000002', '0091017200_14062023000002', '0091017200_14062023000002']
Stack 7 with items: ['0091017200_14062023000002', '0091017200_14062023000002']
Stack 8 with items: ['0091017200_14062023000068', '0091017200_14062023000068']
Stack 9 with items: ['0091017200_14062023000004', '0091017200_14062023000004']
Stack 10 with items: ['0091017200_14062023000004', '0091017200_14062023000004']
Stack 11 with items: ['0091017200_14062023000068', '0091017200_14062023000004']
Stack 12 with items: ['0091017200_14062023000004', '0091017200_14062023000004']
Stack 13 with items: ['0091017200_14062023000068', '0091017200_14062023000068']
Stack 14 with items: ['0091017200_14062023000068', '0091017200_14062023000068']
Heuristic packed all stacks

----------------------------------------------------------------------------------------------------
2D Packing Heuristic in Truck P199630901
Min2DVol: 17.999999999999996 [m2]
Stack 0 with items: ['0091017200_14062023000119', '0091017200_14062023000109', '0091017200_14062023000119']
Stack 1 with items: ['0091017200_14062023000109', '0091017200_14062023000109', '0091017200_14062023000109']
Stack 2 with items: ['0091017200_14062023000109', '0091017200_14062023000109', '0091017200_14062023000109']
Stack 3 with items: ['0091017200_14062023000051', '0091017200_14062023000051', '0091017200_14062023000051']
Stack 4 with items: ['0091017200_14062023000026', '0091017200_14062023000026', '0091017200_14062023000026']
Stack 5 with items: ['0091017200_14062023000026', '0091017200_14062023000026', '0091017200_14062023000026']
Stack 6 with items: ['0091017200_14062023000026', '0091017200_14062023000026', '0091017200_14062023000026']
Stack 7 with items: ['0091017200_14062023000026', '0091017200_14062023000026', '0091017200_14062023000026']
Stack 8 with items: ['0091017200_14062023000094', '0091017200_14062023000094']
Stack 9 with items: ['0091017200_14062023000031', '0091017200_14062023000031']
Stack 10 with items: ['0091017200_14062023000031', '0091017200_14062023000031']
Stack 11 with items: ['0091017200_14062023000031', '0091017200_14062023000094']
Stack 12 with items: ['0091017200_14062023000031', '0091017200_14062023000031']
Stack 13 with items: ['0091017200_14062023000094', '0091017200_14062023000094']
Stack 14 with items: ['0091017200_14062023000094', '0091017200_14062023000094']
Heuristic packed all stacks

----------------------------------------------------------------------------------------------------
2D Packing Heuristic in Truck P244630901
Min2DVol: 19.199999999999996 [m2]
Stack 0 with items: ['0091017200_14062023000103', '0091017200_14062023000103', '0091017200_14062023000103']
Stack 1 with items: ['0091017200_14062023000103', '0091017200_14062023000103', '0091017200_14062023000103']
Stack 2 with items: ['0091017200_14062023000103', '0091017200_14062023000103', '0091017200_14062023000103']
Stack 3 with items: ['0091017200_14062023000103', '0091017200_14062023000103', '0091017200_14062023000103']
Stack 4 with items: ['0091017200_14062023000103', '0091017200_14062023000079', '0091017200_14062023000079']
Stack 5 with items: ['0091017200_14062023000079', '0091017200_14062023000070', '0091017200_14062023000070']
Stack 6 with items: ['0091017200_14062023000070', '0091017200_14062023000017', '0091017200_14062023000070']
Stack 7 with items: ['0091017200_14062023000017', '0091017200_14062023000017', '0091017200_14062023000017']
Stack 8 with items: ['0091017200_14062023000017']
Stack 9 with items: ['0091017200_14062023000037', '0091017200_14062023000037']
Stack 10 with items: ['0091017200_14062023000034', '0091017200_14062023000034']
Stack 11 with items: ['0091017200_14062023000034', '0091017200_14062023000034']
Stack 12 with items: ['0091017200_14062023000034', '0091017200_14062023000037']
Stack 13 with items: ['0091017200_14062023000034', '0091017200_14062023000034']
Stack 14 with items: ['0091017200_14062023000037', '0091017200_14062023000037']
Stack 15 with items: ['0091017200_14062023000037', '0091017200_14062023000037']
Heuristic packed all stacks

----------------------------------------------------------------------------------------------------
2D Packing Heuristic in Truck P195630901
Min2DVol: 20.39999999999999 [m2]
Stack 0 with items: ['0091017200_14062023000064', '0091017200_14062023000064']
Stack 1 with items: ['0091017200_14062023000064', '0091017200_14062023000064']
Stack 2 with items: ['0091017200_14062023000033', '0091017200_14062023000033']
Stack 3 with items: ['0091017200_14062023000036', '0091017200_14062023000035']
Stack 4 with items: ['0091017200_14062023000033', '0091017200_14062023000033']
Stack 5 with items: ['0091017200_14062023000064', '0091017200_14062023000064']
Stack 6 with items: ['0091017200_14062023000033', '0091017200_14062023000033']
Stack 7 with items: ['0091017200_14062023000033']
Stack 8 with items: ['0091017200_14062023000114', '0091017200_14062023000114', '0091017200_14062023000114']
Stack 9 with items: ['0091017200_14062023000110', '0091017200_14062023000110', '0091017200_14062023000110']
Stack 10 with items: ['0091017200_14062023000110', '0091017200_14062023000110', '0091017200_14062023000110']
Stack 11 with items: ['0091017200_14062023000087', '0091017200_14062023000087', '0091017200_14062023000087']
Stack 12 with items: ['0091017200_14062023000087', '0091017200_14062023000087', '0091017200_14062023000087']
Stack 13 with items: ['0091017200_14062023000087', '0091017200_14062023000087', '0091017200_14062023000087']
Stack 14 with items: ['0091017200_14062023000087', '0091017200_14062023000087', '0091017200_14062023000087']
Stack 15 with items: ['0091017200_14062023000087', '0091017200_14062023000048', '0091017200_14062023000048']
Stack 16 with items: ['0091017200_14062023000048', '0091017200_14062023000048']
Heuristic packed all stacks

----------------------------------------------------------------------------------------------------
2D Packing Heuristic in Truck P241630901
Min2DVol: 20.39999999999999 [m2]
Stack 0 with items: ['0091017200_14062023000007', '0091017200_14062023000007']
Stack 1 with items: ['0091017200_14062023000072', '0091017200_14062023000007']
Stack 2 with items: ['0091017200_14062023000007', '0091017200_14062023000072']
Stack 3 with items: ['0091017200_14062023000072', '0091017200_14062023000072']
Stack 4 with items: ['0091017200_14062023000007', '0091017200_14062023000072']
Stack 5 with items: ['0091017200_14062023000072', '0091017200_14062023000072']
Stack 6 with items: ['0091017200_14062023000072', '0091017200_14062023000007']
Stack 7 with items: ['0091017200_14062023000007', '0091017200_14062023000007']
Stack 8 with items: ['0091017200_14062023000122', '0091017200_14062023000122', '0091017200_14062023000122']
Stack 9 with items: ['0091017200_14062023000122', '0091017200_14062023000069', '0091017200_14062023000122']
Stack 10 with items: ['0091017200_14062023000069', '0091017200_14062023000069', '0091017200_14062023000069']
Stack 11 with items: ['0091017200_14062023000069', '0091017200_14062023000069', '0091017200_14062023000069']
Stack 12 with items: ['0091017200_14062023000069', '0091017200_14062023000069', '0091017200_14062023000069']
Stack 13 with items: ['0091017200_14062023000069', '0091017200_14062023000069', '0091017200_14062023000069']
Stack 14 with items: ['0091017200_14062023000069', '0091017200_14062023000058', '0091017200_14062023000069']
Stack 15 with items: ['0091017200_14062023000058', '0091017200_14062023000008', '0091017200_14062023000008']
Stack 16 with items: ['0091017200_14062023000008']
Heuristic packed all stacks

----------------------------------------------------------------------------------------------------
2D Packing Heuristic in Truck P188630901
Min2DVol: 21.599999999999994 [m2]
Stack 0 with items: ['0091017200_14062023000106', '0091017200_14062023000106', '0091017200_14062023000106']
Stack 1 with items: ['0091017200_14062023000106', '0091017200_14062023000105', '0091017200_14062023000105']
Stack 2 with items: ['0091017200_14062023000105', '0091017200_14062023000105']
Stack 3 with items: ['0091017200_14062023000084', '0091017200_14062023000084']
Stack 4 with items: ['0091017200_14062023000084', '0091017200_14062023000084']
Stack 5 with items: ['0091017200_14062023000084', '0091017200_14062023000084']
Stack 6 with items: ['0091017200_14062023000084', '0091017200_14062023000018']
Stack 7 with items: ['0091017200_14062023000018', '0091017200_14062023000018']
Stack 8 with items: ['0091017200_14062023000018', '0091017200_14062023000018']
Stack 9 with items: ['0091017200_14062023000018']
Stack 10 with items: ['0091017200_14062023000049', '0091017200_14062023000049', '0091017200_14062023000049']
Stack 11 with items: ['0091017200_14062023000049', '0091017200_14062023000049', '0091017200_14062023000049']
Stack 12 with items: ['0091017200_14062023000113', '0091017200_14062023000039', '0091017200_14062023000039']
Stack 13 with items: ['0091017200_14062023000113', '0091017200_14062023000113', '0091017200_14062023000113']
Stack 14 with items: ['0091017200_14062023000049', '0091017200_14062023000049', '0091017200_14062023000049']
Stack 15 with items: ['0091017200_14062023000049', '0091017200_14062023000049', '0091017200_14062023000049']
Stack 16 with items: ['0091017200_14062023000039', '0091017200_14062023000039', '0091017200_14062023000039']
Stack 17 with items: ['0091017200_14062023000039', '0091017200_14062023000039']
Heuristic packed all stacks

----------------------------------------------------------------------------------------------------
2D Packing Heuristic in Truck P192630901
Min2DVol: 20.39999999999999 [m2]
Stack 0 with items: ['0091017200_14062023000075', '0091017200_14062023000075', '0091017200_14062023000075']
Stack 1 with items: ['0091017200_14062023000075', '0091017200_14062023000075', '0091017200_14062023000075']
Stack 2 with items: ['0091017200_14062023000071', '0091017200_14062023000071', '0091017200_14062023000071']
Stack 3 with items: ['0091017200_14062023000071', '0091017200_14062023000071', '0091017200_14062023000071']
Stack 4 with items: ['0091017200_14062023000071', '0091017200_14062023000071', '0091017200_14062023000071']
Stack 5 with items: ['0091017200_14062023000071', '0091017200_14062023000071', '0091017200_14062023000071']
Stack 6 with items: ['0091017200_14062023000038', '0091017200_14062023000038', '0091017200_14062023000038']
Stack 7 with items: ['0091017200_14062023000038', '0091017200_14062023000029', '0091017200_14062023000029']
Stack 8 with items: ['0091017200_14062023000044', '0091017200_14062023000044', '0091017200_14062023000044']
Stack 9 with items: ['0091017200_14062023000044', '0091017200_14062023000056']
Stack 10 with items: ['0091017200_14062023000056', '0091017200_14062023000056', '0091017200_14062023000056']
Stack 11 with items: ['0091017200_14062023000061', '0091017200_14062023000059']
Stack 12 with items: ['0091017200_14062023000059', '0091017200_14062023000061']
Stack 13 with items: ['0091017200_14062023000061', '0091017200_14062023000061']
Stack 14 with items: ['0091017200_14062023000059', '0091017200_14062023000059']
Stack 15 with items: ['0091017200_14062023000059', '0091017200_14062023000059']
Stack 16 with items: ['0091017200_14062023000061', '0091017200_14062023000061']
Heuristic packed all stacks

----------------------------------------------------------------------------------------------------
2D Packing Heuristic in Truck P185630901
Min2DVol: 21.599999999999994 [m2]
Stack 0 with items: ['0091017200_14062023000060', '0091017200_14062023000126', '0091017200_14062023000126']
Stack 1 with items: ['0091017200_14062023000009', '0091017200_14062023000009', '0091017200_14062023000009']
Stack 2 with items: ['0091017200_14062023000060', '0091017200_14062023000060', '0091017200_14062023000060']
Stack 3 with items: ['0091017200_14062023000009', '0091017200_14062023000009', '0091017200_14062023000009']
Stack 4 with items: ['0091017200_14062023000009', '0091017200_14062023000009', '0091017200_14062023000060']
Stack 5 with items: ['0091017200_14062023000126', '0091017200_14062023000126', '0091017200_14062023000126']
Stack 6 with items: ['0091017200_14062023000009', '0091017200_14062023000009', '0091017200_14062023000009']
Stack 7 with items: ['0091017200_14062023000060', '0091017200_14062023000060', '0091017200_14062023000060']
Stack 8 with items: ['0091017200_14062023000118', '0091017200_14062023000118', '0091017200_14062023000118']
Stack 9 with items: ['0091017200_14062023000118', '0091017200_14062023000117', '0091017200_14062023000118']
Stack 10 with items: ['0091017200_14062023000117', '0091017200_14062023000117', '0091017200_14062023000117']
Stack 11 with items: ['0091017200_14062023000117', '0091017200_14062023000081']
Stack 12 with items: ['0091017200_14062023000081', '0091017200_14062023000081']
Stack 13 with items: ['0091017200_14062023000081', '0091017200_14062023000081']
Stack 14 with items: ['0091017200_14062023000081', '0091017200_14062023000057']
Stack 15 with items: ['0091017200_14062023000019', '0091017200_14062023000019']
Stack 16 with items: ['0091017200_14062023000019', '0091017200_14062023000019']
Stack 17 with items: ['0091017200_14062023000019', '0091017200_14062023000019']
Heuristic packed all stacks

----------------------------------------------------------------------------------------------------
2D Packing Heuristic in Truck P237630901
Min2DVol: 25.199999999999992 [m2]
Stack 0 with items: ['0091017200_14062023000095', '0091017200_14062023000095']
Stack 1 with items: ['0091017200_14062023000030', '0091017200_14062023000030']
Stack 2 with items: ['0091017200_14062023000030', '0091017200_14062023000095']
Stack 3 with items: ['0091017200_14062023000030', '0091017200_14062023000030']
Stack 4 with items: ['0091017200_14062023000030', '0091017200_14062023000030']
Stack 5 with items: ['0091017200_14062023000030', '0091017200_14062023000095']
Stack 6 with items: ['0091017200_14062023000095', '0091017200_14062023000095']
Stack 7 with items: ['0091017200_14062023000030', '0091017200_14062023000030']
Stack 8 with items: ['0091017200_14062023000095']
Stack 9 with items: ['0091017200_14062023000095', '0091017200_14062023000095']
Stack 10 with items: ['0091017200_14062023000062', '0091017200_14062023000062', '0091017200_14062023000062']
Stack 11 with items: ['0091017200_14062023000054', '0091017200_14062023000054', '0091017200_14062023000054']
Stack 12 with items: ['0091017200_14062023000047', '0091017200_14062023000047', '0091017200_14062023000047']
Stack 13 with items: ['0091017200_14062023000047', '0091017200_14062023000047', '0091017200_14062023000047']
Stack 14 with items: ['0091017200_14062023000047', '0091017200_14062023000040', '0091017200_14062023000047']
Stack 15 with items: ['0091017200_14062023000040', '0091017200_14062023000040', '0091017200_14062023000040']
Stack 16 with items: ['0091017200_14062023000040', '0091017200_14062023000040', '0091017200_14062023000040']
Stack 17 with items: ['0091017200_14062023000040', '0091017200_14062023000040', '0091017200_14062023000040']
Stack 18 with items: ['0091017200_14062023000040', '0091017200_14062023000040', '0091017200_14062023000040']
Stack 19 with items: ['0091017200_14062023000040', '0091017200_14062023000040', '0091017200_14062023000040']
Stack 20 with items: ['0091017200_14062023000040', '0091017200_14062023000040', '0091017200_14062023000040']
Heuristic packed all stacks

----------------------------------------------------------------------------------------------------
2D Packing Heuristic in Truck P251630901
Min2DVol: 27.59999999999999 [m2]
Stack 0 with items: ['0091017200_14062023000124', '0091017200_14062023000124', '0091017200_14062023000124']
Stack 1 with items: ['0091017200_14062023000124', '0091017200_14062023000086', '0091017200_14062023000124']
Stack 2 with items: ['0091017200_14062023000086', '0091017200_14062023000086', '0091017200_14062023000086']
Stack 3 with items: ['0091017200_14062023000086', '0091017200_14062023000086', '0091017200_14062023000086']
Stack 4 with items: ['0091017200_14062023000086', '0091017200_14062023000086', '0091017200_14062023000086']
Stack 5 with items: ['0091017200_14062023000086', '0091017200_14062023000086', '0091017200_14062023000086']
Stack 6 with items: ['0091017200_14062023000086', '0091017200_14062023000086', '0091017200_14062023000086']
Stack 7 with items: ['0091017200_14062023000086', '0091017200_14062023000086', '0091017200_14062023000086']
Stack 8 with items: ['0091017200_14062023000074', '0091017200_14062023000074', '0091017200_14062023000074']
Stack 9 with items: ['0091017200_14062023000074', '0091017200_14062023000074', '0091017200_14062023000074']
Stack 10 with items: ['0091017200_14062023000074', '0091017200_14062023000010', '0091017200_14062023000010']
Stack 11 with items: ['0091017200_14062023000010', '0091017200_14062023000010', '0091017200_14062023000010']
Stack 12 with items: ['0091017200_14062023000010', '0091017200_14062023000010']
Stack 13 with items: ['0091017200_14062023000093', '0091017200_14062023000093']
Stack 14 with items: ['0091017200_14062023000028', '0091017200_14062023000028']
Stack 15 with items: ['0091017200_14062023000093', '0091017200_14062023000093']
Stack 16 with items: ['0091017200_14062023000028', '0091017200_14062023000028']
Stack 17 with items: ['0091017200_14062023000028', '0091017200_14062023000028']
Stack 18 with items: ['0091017200_14062023000093', '0091017200_14062023000093']
Stack 19 with items: ['0091017200_14062023000093', '0091017200_14062023000093']
Stack 20 with items: ['0091017200_14062023000028', '0091017200_14062023000028']
Stack 21 with items: ['0091017200_14062023000028', '0091017200_14062023000028']
Stack 22 with items: ['0091017200_14062023000093', '0091017200_14062023000093']
Heuristic packed all stacks

----------------------------------------------------------------------------------------------------
2D Packing Heuristic in Truck P202630901
Min2DVol: 29.99999999999999 [m2]
Stack 0 with items: ['0091017200_14062023000046', '0091017200_14062023000046', '0091017200_14062023000046']
Stack 1 with items: ['0091017200_14062023000042', '0091017200_14062023000042', '0091017200_14062023000042']
Stack 2 with items: ['0091017200_14062023000042', '0091017200_14062023000042', '0091017200_14062023000042']
Stack 3 with items: ['0091017200_14062023000042', '0091017200_14062023000042', '0091017200_14062023000042']
Stack 4 with items: ['0091017200_14062023000042', '0091017200_14062023000042', '0091017200_14062023000042']
Stack 5 with items: ['0091017200_14062023000042', '0091017200_14062023000042', '0091017200_14062023000042']
Stack 6 with items: ['0091017200_14062023000042', '0091017200_14062023000042', '0091017200_14062023000042']
Stack 7 with items: ['0091017200_14062023000042', '0091017200_14062023000042', '0091017200_14062023000042']
Stack 8 with items: ['0091017200_14062023000042', '0091017200_14062023000042', '0091017200_14062023000042']
Stack 9 with items: ['0091017200_14062023000025', '0091017200_14062023000025', '0091017200_14062023000025']
Stack 10 with items: ['0091017200_14062023000025', '0091017200_14062023000025']
Stack 11 with items: ['0091017200_14062023000125', '0091017200_14062023000125']
Stack 12 with items: ['0091017200_14062023000125', '0091017200_14062023000125']
Stack 13 with items: ['0091017200_14062023000125', '0091017200_14062023000125']
Stack 14 with items: ['0091017200_14062023000125', '0091017200_14062023000125']
Stack 15 with items: ['0091017200_14062023000120', '0091017200_14062023000120']
Stack 16 with items: ['0091017200_14062023000125', '0091017200_14062023000125']
Stack 17 with items: ['0091017200_14062023000120', '0091017200_14062023000120']
Stack 18 with items: ['0091017200_14062023000125', '0091017200_14062023000125']
Stack 19 with items: ['0091017200_14062023000120']
Stack 20 with items: ['0091017200_14062023000120', '0091017200_14062023000120']
Stack 21 with items: ['0091017200_14062023000120', '0091017200_14062023000120']
Stack 22 with items: ['0091017200_14062023000120', '0091017200_14062023000120']
Stack 23 with items: ['0091017200_14062023000120', '0091017200_14062023000123']
Stack 24 with items: ['0091017200_14062023000125', '0091017200_14062023000120']
Heuristic packed all stacks
****************************************************************************************************
****************************************************************************************************
****************************************************************************************************
Final Solution
Objective;29100.0
Transportation cost;28500.0
Inventory cost;600.0
Runtime;0.71
****************************************************************************************************
****************************************************************************************************
****************************************************************************************************
####################################################################################################
Export solution
End ROADEF
####################################################################################################
####################################################################################################
####################################################################################################
####################################################################################################
####################################################################################################
####################################################################################################
####################################################################################################

real	0m1.712s
user	0m1.424s
sys	0m0.781s
finished at Thu Oct 19 14:12:06 CEST 2023
